\Problem name: compact

Minimize
OBJROW: C
Subject To
ord(0,1):  - x(0,1) + x(0,2) >= 4
ord(0,2):  x(0,0) - x(0,2) >= 10
ord(1,1):  - x(1,0) + x(1,2) >= 6
ord(1,2):  x(1,1) - x(1,2) >= 7
ord(2,1):  - x(2,0) + x(2,1) >= 2
ord(2,2):  - x(2,1) + x(2,2) >= 7
triangle2(0,1,0):  y(0,1,0) + y(1,0,0) = 1
triangle2(0,1,1):  y(0,1,1) + y(1,0,1) = 1
triangle2(0,1,2):  y(0,1,2) + y(1,0,2) = 1
triangle2(0,2,0):  y(0,2,0) + y(2,0,0) = 1
triangle2(0,2,1):  y(0,2,1) + y(2,0,1) = 1
triangle2(0,2,2):  y(0,2,2) + y(2,0,2) = 1
triangle2(1,2,0):  y(1,2,0) + y(2,1,0) = 1
triangle2(1,2,1):  y(1,2,1) + y(2,1,1) = 1
triangle2(1,2,2):  y(1,2,2) + y(2,1,2) = 1
MCLinV(0,1,0):  x(0,0) - v(0,1,0) - x(1,0) = 6
MCLinV(1,0,0):  - x(0,0) - v(1,0,0) + x(1,0) = 2
MCLin1(0,1,0):  u(0,1,0) >= -0
MCLin2(0,1,0):  -27 y(1,0,0) - u(0,1,0) <= -0
MCLin3(0,1,0):  47 y(1,0,0) + v(0,1,0) - u(0,1,0) <= 47
MCLin4(0,1,0):  47 y(1,0,0) - u(0,1,0) >= -0
MCLin5(0,1,0):  -27 y(1,0,0) + v(0,1,0) - u(0,1,0) >= -27
MCLin6(1,0,0):  u(1,0,0) >= -0
MCLin7(1,0,0):  -55 y(0,1,0) - u(1,0,0) <= -0
MCLin8(1,0,0):  19 y(0,1,0) + v(1,0,0) - u(1,0,0) <= 19
MCLin9(1,0,0):  19 y(0,1,0) - u(1,0,0) >= -0
MCLin10(1,0,0):  -55 y(0,1,0) + v(1,0,0) - u(1,0,0) >= -55
MCLinV(0,1,1):  x(0,1) - v(0,1,1) - x(1,1) = 7
MCLinV(1,0,1):  - x(0,1) - v(1,0,1) + x(1,1) = 4
MCLin1(0,1,1):  u(0,1,1) >= -0
MCLin2(0,1,1):  -55 y(1,0,1) - u(0,1,1) <= -0
MCLin3(0,1,1):  19 y(1,0,1) + v(0,1,1) - u(0,1,1) <= 19
MCLin4(0,1,1):  19 y(1,0,1) - u(0,1,1) >= -0
MCLin5(0,1,1):  -55 y(1,0,1) + v(0,1,1) - u(0,1,1) >= -55
MCLin6(1,0,1):  u(1,0,1) >= -0
MCLin7(1,0,1):  -30 y(0,1,1) - u(1,0,1) <= -0
MCLin8(1,0,1):  44 y(0,1,1) + v(1,0,1) - u(1,0,1) <= 44
MCLin9(1,0,1):  44 y(0,1,1) - u(1,0,1) >= -0
MCLin10(1,0,1):  -30 y(0,1,1) + v(1,0,1) - u(1,0,1) >= -30
MCLinV(0,1,2):  x(0,2) - v(0,1,2) - x(1,2) = 7
MCLinV(1,0,2):  - x(0,2) - v(1,0,2) + x(1,2) = 10
MCLin1(0,1,2):  u(0,1,2) >= -0
MCLin2(0,1,2):  -44 y(1,0,2) - u(0,1,2) <= -0
MCLin3(0,1,2):  30 y(1,0,2) + v(0,1,2) - u(0,1,2) <= 30
MCLin4(0,1,2):  30 y(1,0,2) - u(0,1,2) >= -0
MCLin5(0,1,2):  -44 y(1,0,2) + v(0,1,2) - u(0,1,2) >= -44
MCLin6(1,0,2):  u(1,0,2) >= -0
MCLin7(1,0,2):  -47 y(0,1,2) - u(1,0,2) <= -0
MCLin8(1,0,2):  27 y(0,1,2) + v(1,0,2) - u(1,0,2) <= 27
MCLin9(1,0,2):  27 y(0,1,2) - u(1,0,2) >= -0
MCLin10(1,0,2):  -47 y(0,1,2) + v(1,0,2) - u(1,0,2) >= -47
MCLinV(0,2,0):  x(0,0) - v(0,2,0) - x(2,0) = 2
MCLinV(2,0,0):  - x(0,0) - v(2,0,0) + x(2,0) = 2
MCLin1(0,2,0):  u(0,2,0) >= -0
MCLin2(0,2,0):  -24 y(2,0,0) - u(0,2,0) <= -0
MCLin3(0,2,0):  51 y(2,0,0) + v(0,2,0) - u(0,2,0) <= 51
MCLin4(0,2,0):  51 y(2,0,0) - u(0,2,0) >= -0
MCLin5(0,2,0):  -24 y(2,0,0) + v(0,2,0) - u(0,2,0) >= -24
MCLin6(2,0,0):  u(2,0,0) >= -0
MCLin7(2,0,0):  -55 y(0,2,0) - u(2,0,0) <= -0
MCLin8(2,0,0):  20 y(0,2,0) + v(2,0,0) - u(2,0,0) <= 20
MCLin9(2,0,0):  20 y(0,2,0) - u(2,0,0) >= -0
MCLin10(2,0,0):  -55 y(0,2,0) + v(2,0,0) - u(2,0,0) >= -55
MCLinV(0,2,1):  x(0,1) - v(0,2,1) - x(2,1) = 7
MCLinV(2,0,1):  - x(0,1) - v(2,0,1) + x(2,1) = 4
MCLin1(0,2,1):  u(0,2,1) >= -0
MCLin2(0,2,1):  -45 y(2,0,1) - u(0,2,1) <= -0
MCLin3(0,2,1):  30 y(2,0,1) + v(0,2,1) - u(0,2,1) <= 30
MCLin4(0,2,1):  30 y(2,0,1) - u(0,2,1) >= -0
MCLin5(0,2,1):  -45 y(2,0,1) + v(0,2,1) - u(0,2,1) >= -45
MCLin6(2,0,1):  u(2,0,1) >= -0
MCLin7(2,0,1):  -41 y(0,2,1) - u(2,0,1) <= -0
MCLin8(2,0,1):  34 y(0,2,1) + v(2,0,1) - u(2,0,1) <= 34
MCLin9(2,0,1):  34 y(0,2,1) - u(2,0,1) >= -0
MCLin10(2,0,1):  -41 y(0,2,1) + v(2,0,1) - u(2,0,1) >= -41
MCLinV(0,2,2):  x(0,2) - v(0,2,2) - x(2,2) = 10
MCLinV(2,0,2):  - x(0,2) - v(2,0,2) + x(2,2) = 10
MCLin1(0,2,2):  u(0,2,2) >= -0
MCLin2(0,2,2):  -51 y(2,0,2) - u(0,2,2) <= -0
MCLin3(0,2,2):  24 y(2,0,2) + v(0,2,2) - u(0,2,2) <= 24
MCLin4(0,2,2):  24 y(2,0,2) - u(0,2,2) >= -0
MCLin5(0,2,2):  -51 y(2,0,2) + v(0,2,2) - u(0,2,2) >= -51
MCLin6(2,0,2):  u(2,0,2) >= -0
MCLin7(2,0,2):  -44 y(0,2,2) - u(2,0,2) <= -0
MCLin8(2,0,2):  31 y(0,2,2) + v(2,0,2) - u(2,0,2) <= 31
MCLin9(2,0,2):  31 y(0,2,2) - u(2,0,2) >= -0
MCLin10(2,0,2):  -44 y(0,2,2) + v(2,0,2) - u(2,0,2) >= -44
MCLinV(1,2,0):  x(1,0) - v(1,2,0) - x(2,0) = 2
MCLinV(2,1,0):  - x(1,0) - v(2,1,0) + x(2,0) = 6
MCLin1(1,2,0):  u(1,2,0) >= -0
MCLin2(1,2,0):  -38 y(2,1,0) - u(1,2,0) <= -0
MCLin3(1,2,0):  33 y(2,1,0) + v(1,2,0) - u(1,2,0) <= 33
MCLin4(1,2,0):  33 y(2,1,0) - u(1,2,0) >= -0
MCLin5(1,2,0):  -38 y(2,1,0) + v(1,2,0) - u(1,2,0) >= -38
MCLin6(2,1,0):  u(2,1,0) >= -0
MCLin7(2,1,0):  -41 y(1,2,0) - u(2,1,0) <= -0
MCLin8(2,1,0):  30 y(1,2,0) + v(2,1,0) - u(2,1,0) <= 30
MCLin9(2,1,0):  30 y(1,2,0) - u(2,1,0) >= -0
MCLin10(2,1,0):  -41 y(1,2,0) + v(2,1,0) - u(2,1,0) >= -41
MCLinV(1,2,1):  x(1,1) - v(1,2,1) - x(2,1) = 7
MCLinV(2,1,1):  - x(1,1) - v(2,1,1) + x(2,1) = 7
MCLin1(1,2,1):  u(1,2,1) >= -0
MCLin2(1,2,1):  -32 y(2,1,1) - u(1,2,1) <= -0
MCLin3(1,2,1):  39 y(2,1,1) + v(1,2,1) - u(1,2,1) <= 39
MCLin4(1,2,1):  39 y(2,1,1) - u(1,2,1) >= -0
MCLin5(1,2,1):  -32 y(2,1,1) + v(1,2,1) - u(1,2,1) >= -32
MCLin6(2,1,1):  u(2,1,1) >= -0
MCLin7(2,1,1):  -53 y(1,2,1) - u(2,1,1) <= -0
MCLin8(2,1,1):  18 y(1,2,1) + v(2,1,1) - u(2,1,1) <= 18
MCLin9(2,1,1):  18 y(1,2,1) - u(2,1,1) >= -0
MCLin10(2,1,1):  -53 y(1,2,1) + v(2,1,1) - u(2,1,1) >= -53
MCLinV(1,2,2):  x(1,2) - v(1,2,2) - x(2,2) = 10
MCLinV(2,1,2):  - x(1,2) - v(2,1,2) + x(2,2) = 7
MCLin1(1,2,2):  u(1,2,2) >= -0
MCLin2(1,2,2):  -49 y(2,1,2) - u(1,2,2) <= -0
MCLin3(1,2,2):  22 y(2,1,2) + v(1,2,2) - u(1,2,2) <= 22
MCLin4(1,2,2):  22 y(2,1,2) - u(1,2,2) >= -0
MCLin5(1,2,2):  -49 y(2,1,2) + v(1,2,2) - u(1,2,2) >= -49
MCLin6(2,1,2):  u(2,1,2) >= -0
MCLin7(2,1,2):  -39 y(1,2,2) - u(2,1,2) <= -0
MCLin8(2,1,2):  32 y(1,2,2) + v(2,1,2) - u(2,1,2) <= 32
MCLin9(2,1,2):  32 y(1,2,2) - u(2,1,2) >= -0
MCLin10(2,1,2):  -39 y(1,2,2) + v(2,1,2) - u(2,1,2) >= -39
makespan(0):  C - x(0,0) >= 2
makespan(1):  C - x(1,1) >= 7
makespan(2):  C - x(2,2) >= 10
cut_clique_0(012,0):  0.50000 x(1,0) + 0.16667 x(2,0) >= 1
cut_clique_0(012,1):  0.05556 x(0,1) + 0.25000 x(2,1) >= 1
cut_clique_0(012,2):  0.02126 x(0,2) + 0.02079 x(1,2) + 0.02971 x(2,2) >= 1
cut_clique_0:  0.11780 x(2,1) + 0.02007 x(0,2) + 0.00698 x(1,2) + 0.02007 x(2,2) >= 1
Bounds
 0 <= C <= 55
 14 <= x(0,0) <= 53
 0 <= y(0,1,0) <= 1
 0 <= y(1,0,0) <= 1
 -27 <= v(0,1,0) <= 47
 -55 <= v(1,0,0) <= 19
 -550 <= u(0,1,0)
 -550 <= u(1,0,0)
 0 <= y(0,2,0) <= 1
 0 <= y(2,0,0) <= 1
 -24 <= v(0,2,0) <= 51
 -55 <= v(2,0,0) <= 20
 -550 <= u(0,2,0)
 -550 <= u(2,0,0)
 0 <= x(1,0) <= 35
 0 <= y(1,2,0) <= 1
 0 <= y(2,1,0) <= 1
 -38 <= v(1,2,0) <= 33
 -41 <= v(2,1,0) <= 30
 -550 <= u(1,2,0)
 -550 <= u(2,1,0)
 0 <= x(2,0) <= 36
 0 <= x(0,1) <= 39
 0 <= y(0,1,1) <= 1
 0 <= y(1,0,1) <= 1
 -55 <= v(0,1,1) <= 19
 -30 <= v(1,0,1) <= 44
 -550 <= u(0,1,1)
 -550 <= u(1,0,1)
 0 <= y(0,2,1) <= 1
 0 <= y(2,0,1) <= 1
 -45 <= v(0,2,1) <= 30
 -41 <= v(2,0,1) <= 34
 -550 <= u(0,2,1)
 -550 <= u(2,0,1)
 13 <= x(1,1) <= 48
 0 <= y(1,2,1) <= 1
 0 <= y(2,1,1) <= 1
 -32 <= v(1,2,1) <= 39
 -53 <= v(2,1,1) <= 18
 -550 <= u(1,2,1)
 -550 <= u(2,1,1)
 2 <= x(2,1) <= 38
 4 <= x(0,2) <= 43
 0 <= y(0,1,2) <= 1
 0 <= y(1,0,2) <= 1
 -44 <= v(0,1,2) <= 30
 -47 <= v(1,0,2) <= 27
 -550 <= u(0,1,2)
 -550 <= u(1,0,2)
 0 <= y(0,2,2) <= 1
 0 <= y(2,0,2) <= 1
 -51 <= v(0,2,2) <= 24
 -44 <= v(2,0,2) <= 31
 -550 <= u(0,2,2)
 -550 <= u(2,0,2)
 6 <= x(1,2) <= 41
 0 <= y(1,2,2) <= 1
 0 <= y(2,1,2) <= 1
 -49 <= v(1,2,2) <= 22
 -39 <= v(2,1,2) <= 32
 -550 <= u(1,2,2)
 -550 <= u(2,1,2)
 9 <= x(2,2) <= 45
Integers
C x(0,0) y(0,1,0) y(1,0,0) v(0,1,0) v(1,0,0) u(0,1,0) u(1,0,0) y(0,2,0) y(2,0,0) 
v(0,2,0) v(2,0,0) u(0,2,0) u(2,0,0) x(1,0) y(1,2,0) y(2,1,0) v(1,2,0) v(2,1,0) u(1,2,0) 
u(2,1,0) x(2,0) x(0,1) y(0,1,1) y(1,0,1) v(0,1,1) v(1,0,1) u(0,1,1) u(1,0,1) y(0,2,1) 
y(2,0,1) v(0,2,1) v(2,0,1) u(0,2,1) u(2,0,1) x(1,1) y(1,2,1) y(2,1,1) v(1,2,1) v(2,1,1) 
u(1,2,1) u(2,1,1) x(2,1) x(0,2) y(0,1,2) y(1,0,2) v(0,1,2) v(1,0,2) u(0,1,2) u(1,0,2) 
y(0,2,2) y(2,0,2) v(0,2,2) v(2,0,2) u(0,2,2) u(2,0,2) x(1,2) y(1,2,2) y(2,1,2) v(1,2,2) 
v(2,1,2) u(1,2,2) u(2,1,2) x(2,2) 
End
